\ENCODING=ISO-8859-1
\Problem name: IloCplex

Minimize
 obj1: 999999 x_0_0_0 + 21.2132034355964 x_0_0_1 + 22.8035085019828 x_0_0_2
       + 25 x_0_0_3 + 20.591260281974 x_0_0_4 + 18.0277563773199 x_0_0_5
       + 23.3238075793812 x_0_0_6 + 19.2093727122985 x_0_0_7
       + 20.6155281280883 x_0_0_8 + 18.6815416922694 x_0_0_9
       + 19.313207915828 x_0_0_10 + 16.5529453572468 x_0_0_11
       + 21.540659228538 x_0_0_12 + 22.3606797749979 x_0_0_13
       + 21.2132034355964 x_0_1_0 + 999999 x_0_1_1 + 3.16227766016838 x_0_1_2
       + 5 x_0_1_3 + 5.8309518948453 x_0_1_4 + 5 x_0_1_5
       + 5.8309518948453 x_0_1_6 + 3 x_0_1_7 + 11.1803398874989 x_0_1_8
       + 10.4403065089106 x_0_1_9 + 8.54400374531753 x_0_1_10 + 8 x_0_1_11
       + 8.60232526704263 x_0_1_12 + 7.07106781186548 x_0_1_13
       + 22.8035085019828 x_0_2_0 + 3.16227766016838 x_0_2_1 + 999999 x_0_2_2
       + 2.23606797749979 x_0_2_3 + 4 x_0_2_4 + 5 x_0_2_5
       + 2.82842712474619 x_0_2_6 + 3.60555127546399 x_0_2_7
       + 9.21954445729289 x_0_2_8 + 9 x_0_2_9 + 7 x_0_2_10
       + 7.61577310586391 x_0_2_11 + 6.32455532033676 x_0_2_12
       + 4.47213595499958 x_0_2_13 + 25 x_0_3_0 + 5 x_0_3_1
       + 2.23606797749979 x_0_3_2 + 999999 x_0_3_3 + 5.3851648071345 x_0_3_4
       + 7.07106781186548 x_0_3_5 + 3 x_0_3_6 + 5.8309518948453 x_0_3_7
       + 10 x_0_3_8 + 10.1980390271856 x_0_3_9 + 8.24621125123532 x_0_3_10
       + 9.4339811320566 x_0_3_11 + 7 x_0_3_12 + 5 x_0_3_13
       + 20.591260281974 x_0_4_0 + 5.8309518948453 x_0_4_1 + 4 x_0_4_2
       + 5.3851648071345 x_0_4_3 + 999999 x_0_4_4 + 3 x_0_4_5
       + 2.82842712474619 x_0_4_6 + 3.60555127546399 x_0_4_7
       + 5.3851648071345 x_0_4_8 + 5 x_0_4_9 + 3 x_0_4_10
       + 4.24264068711928 x_0_4_11 + 2.82842712474619 x_0_4_12 + 2 x_0_4_13
       + 18.0277563773199 x_0_5_0 + 5 x_0_5_1 + 5 x_0_5_2
       + 7.07106781186548 x_0_5_3 + 3 x_0_5_4 + 999999 x_0_5_5
       + 5.3851648071345 x_0_5_6 + 2 x_0_5_7 + 7.07106781186548 x_0_5_8
       + 5.8309518948453 x_0_5_9 + 4.24264068711928 x_0_5_10 + 3 x_0_5_11
       + 5.3851648071345 x_0_5_12 + 5 x_0_5_13 + 23.3238075793812 x_0_6_0
       + 5.8309518948453 x_0_6_1 + 2.82842712474619 x_0_6_2 + 3 x_0_6_3
       + 2.82842712474619 x_0_6_4 + 5.3851648071345 x_0_6_5 + 999999 x_0_6_6
       + 5 x_0_6_7 + 7 x_0_6_8 + 7.28010988928052 x_0_6_9
       + 5.3851648071345 x_0_6_10 + 7.07106781186548 x_0_6_11 + 4 x_0_6_12
       + 2 x_0_6_13 + 19.2093727122985 x_0_7_0 + 3 x_0_7_1
       + 3.60555127546399 x_0_7_2 + 5.8309518948453 x_0_7_3
       + 3.60555127546399 x_0_7_4 + 2 x_0_7_5 + 5 x_0_7_6 + 999999 x_0_7_7
       + 8.60232526704263 x_0_7_8 + 7.61577310586391 x_0_7_9
       + 5.8309518948453 x_0_7_10 + 5 x_0_7_11 + 6.40312423743285 x_0_7_12
       + 5.3851648071345 x_0_7_13 + 20.6155281280883 x_0_8_0
       + 11.1803398874989 x_0_8_1 + 9.21954445729289 x_0_8_2 + 10 x_0_8_3
       + 5.3851648071345 x_0_8_4 + 7.07106781186548 x_0_8_5 + 7 x_0_8_6
       + 8.60232526704263 x_0_8_7 + 999999 x_0_8_8 + 2 x_0_8_9
       + 2.82842712474619 x_0_8_10 + 5.3851648071345 x_0_8_11 + 3 x_0_8_12
       + 5 x_0_8_13 + 18.6815416922694 x_0_9_0 + 10.4403065089106 x_0_9_1
       + 9 x_0_9_2 + 10.1980390271856 x_0_9_3 + 5 x_0_9_4
       + 5.8309518948453 x_0_9_5 + 7.28010988928052 x_0_9_6
       + 7.61577310586391 x_0_9_7 + 2 x_0_9_8 + 999999 x_0_9_9 + 2 x_0_9_10
       + 3.60555127546399 x_0_9_11 + 3.60555127546399 x_0_9_12
       + 5.3851648071345 x_0_9_13 + 19.313207915828 x_0_10_0
       + 8.54400374531753 x_0_10_1 + 7 x_0_10_2 + 8.24621125123532 x_0_10_3
       + 3 x_0_10_4 + 4.24264068711928 x_0_10_5 + 5.3851648071345 x_0_10_6
       + 5.8309518948453 x_0_10_7 + 2.82842712474619 x_0_10_8 + 2 x_0_10_9
       + 999999 x_0_10_10 + 3 x_0_10_11 + 2.23606797749979 x_0_10_12
       + 3.60555127546399 x_0_10_13 + 16.5529453572468 x_0_11_0 + 8 x_0_11_1
       + 7.61577310586391 x_0_11_2 + 9.4339811320566 x_0_11_3
       + 4.24264068711928 x_0_11_4 + 3 x_0_11_5 + 7.07106781186548 x_0_11_6
       + 5 x_0_11_7 + 5.3851648071345 x_0_11_8 + 3.60555127546399 x_0_11_9
       + 3 x_0_11_10 + 999999 x_0_11_11 + 5.09901951359278 x_0_11_12
       + 5.8309518948453 x_0_11_13 + 21.540659228538 x_0_12_0
       + 8.60232526704263 x_0_12_1 + 6.32455532033676 x_0_12_2 + 7 x_0_12_3
       + 2.82842712474619 x_0_12_4 + 5.3851648071345 x_0_12_5 + 4 x_0_12_6
       + 6.40312423743285 x_0_12_7 + 3 x_0_12_8 + 3.60555127546399 x_0_12_9
       + 2.23606797749979 x_0_12_10 + 5.09901951359278 x_0_12_11
       + 999999 x_0_12_12 + 2 x_0_12_13 + 22.3606797749979 x_0_13_0
       + 7.07106781186548 x_0_13_1 + 4.47213595499958 x_0_13_2 + 5 x_0_13_3
       + 2 x_0_13_4 + 5 x_0_13_5 + 2 x_0_13_6 + 5.3851648071345 x_0_13_7
       + 5 x_0_13_8 + 5.3851648071345 x_0_13_9 + 3.60555127546399 x_0_13_10
       + 5.8309518948453 x_0_13_11 + 2 x_0_13_12 + 999999 x_0_13_13 + 20
Subject To
 alguemSaiDoCliente(1)#0:        z_0_1 + y_0_1  = 1
 alguemSaiDoCliente(2)#1:        z_0_2 + y_0_2  = 1
 alguemSaiDoCliente(3)#2:        z_0_3 + y_0_3  = 1
 alguemSaiDoCliente(4)#3:        z_0_4 + y_0_4  = 1
 alguemSaiDoCliente(5)#4:        z_0_5 + y_0_5  = 1
 alguemSaiDoCliente(6)#5:        z_0_6 + y_0_6  = 1
 alguemSaiDoCliente(7)#6:        z_0_7 + y_0_7  = 1
 alguemSaiDoCliente(8)#7:        z_0_8 + y_0_8  = 1
 alguemSaiDoCliente(9)#8:        z_0_9 + y_0_9  = 1
 alguemSaiDoCliente(10)#9:       z_0_10 + y_0_10  = 1
 alguemSaiDoCliente(11)#10:      z_0_11 + y_0_11  = 1
 alguemSaiDoCliente(12)#11:      z_0_12 + y_0_12  = 1
 alguemSaiDoCliente(13)#12:      z_0_13 + y_0_13  = 1
 veiculo_origin_0#13:            z_0_1 + z_0_2 + z_0_3 + z_0_4 + z_0_5 + z_0_6
                                 + z_0_7 + z_0_8 + z_0_9 + z_0_10 + z_0_11
                                 + z_0_12 + z_0_13 + z_0_0 <= 14
 chegadaNoCliente_1_peloVehicle_0#14: x_0_0_1 + x_0_2_1 + x_0_3_1 + x_0_4_1
                                 + x_0_5_1 + x_0_6_1 + x_0_7_1 + x_0_8_1
                                 + x_0_9_1 + x_0_10_1 + x_0_11_1 + x_0_12_1
                                 + x_0_13_1  = 1
 chegadaNoCliente_2_peloVehicle_0#15: x_0_0_2 + x_0_1_2 + x_0_3_2 + x_0_4_2
                                 + x_0_5_2 + x_0_6_2 + x_0_7_2 + x_0_8_2
                                 + x_0_9_2 + x_0_10_2 + x_0_11_2 + x_0_12_2
                                 + x_0_13_2  = 1
 chegadaNoCliente_3_peloVehicle_0#16: x_0_0_3 + x_0_1_3 + x_0_2_3 + x_0_4_3
                                 + x_0_5_3 + x_0_6_3 + x_0_7_3 + x_0_8_3
                                 + x_0_9_3 + x_0_10_3 + x_0_11_3 + x_0_12_3
                                 + x_0_13_3  = 1
 chegadaNoCliente_4_peloVehicle_0#17: x_0_0_4 + x_0_1_4 + x_0_2_4 + x_0_3_4
                                 + x_0_5_4 + x_0_6_4 + x_0_7_4 + x_0_8_4
                                 + x_0_9_4 + x_0_10_4 + x_0_11_4 + x_0_12_4
                                 + x_0_13_4  = 1
 chegadaNoCliente_5_peloVehicle_0#18: x_0_0_5 + x_0_1_5 + x_0_2_5 + x_0_3_5
                                 + x_0_4_5 + x_0_6_5 + x_0_7_5 + x_0_8_5
                                 + x_0_9_5 + x_0_10_5 + x_0_11_5 + x_0_12_5
                                 + x_0_13_5  = 1
 chegadaNoCliente_6_peloVehicle_0#19: x_0_0_6 + x_0_1_6 + x_0_2_6 + x_0_3_6
                                 + x_0_4_6 + x_0_5_6 + x_0_7_6 + x_0_8_6
                                 + x_0_9_6 + x_0_10_6 + x_0_11_6 + x_0_12_6
                                 + x_0_13_6  = 1
 chegadaNoCliente_7_peloVehicle_0#20: x_0_0_7 + x_0_1_7 + x_0_2_7 + x_0_3_7
                                 + x_0_4_7 + x_0_5_7 + x_0_6_7 + x_0_8_7
                                 + x_0_9_7 + x_0_10_7 + x_0_11_7 + x_0_12_7
                                 + x_0_13_7  = 1
 chegadaNoCliente_8_peloVehicle_0#21: x_0_0_8 + x_0_1_8 + x_0_2_8 + x_0_3_8
                                 + x_0_4_8 + x_0_5_8 + x_0_6_8 + x_0_7_8
                                 + x_0_9_8 + x_0_10_8 + x_0_11_8 + x_0_12_8
                                 + x_0_13_8  = 1
 chegadaNoCliente_9_peloVehicle_0#22: x_0_0_9 + x_0_1_9 + x_0_2_9 + x_0_3_9
                                 + x_0_4_9 + x_0_5_9 + x_0_6_9 + x_0_7_9
                                 + x_0_8_9 + x_0_10_9 + x_0_11_9 + x_0_12_9
                                 + x_0_13_9  = 1
 chegadaNoCliente_10_peloVehicle_0#23: x_0_0_10 + x_0_1_10 + x_0_2_10
                                 + x_0_3_10 + x_0_4_10 + x_0_5_10 + x_0_6_10
                                 + x_0_7_10 + x_0_8_10 + x_0_9_10 + x_0_11_10
                                 + x_0_12_10 + x_0_13_10  = 1
 chegadaNoCliente_11_peloVehicle_0#24: x_0_0_11 + x_0_1_11 + x_0_2_11
                                 + x_0_3_11 + x_0_4_11 + x_0_5_11 + x_0_6_11
                                 + x_0_7_11 + x_0_8_11 + x_0_9_11 + x_0_10_11
                                 + x_0_12_11 + x_0_13_11  = 1
 chegadaNoCliente_12_peloVehicle_0#25: x_0_0_12 + x_0_1_12 + x_0_2_12
                                 + x_0_3_12 + x_0_4_12 + x_0_5_12 + x_0_6_12
                                 + x_0_7_12 + x_0_8_12 + x_0_9_12 + x_0_10_12
                                 + x_0_11_12 + x_0_13_12  = 1
 chegadaNoCliente_13_peloVehicle_0#26: x_0_0_13 + x_0_1_13 + x_0_2_13
                                 + x_0_3_13 + x_0_4_13 + x_0_5_13 + x_0_6_13
                                 + x_0_7_13 + x_0_8_13 + x_0_9_13 + x_0_10_13
                                 + x_0_11_13 + x_0_12_13  = 1
 saidaDoCliente_0_peloVehicle_0#27: x_0_0_1 + x_0_0_2 + x_0_0_3 + x_0_0_4
                                 + x_0_0_5 + x_0_0_6 + x_0_0_7 + x_0_0_8
                                 + x_0_0_9 + x_0_0_10 + x_0_0_11 + x_0_0_12
                                 + x_0_0_13 - z_0_0  = 0
 saidaDoCliente_1_peloVehicle_0#28: x_0_1_2 + x_0_1_3 + x_0_1_4 + x_0_1_5
                                 + x_0_1_6 + x_0_1_7 + x_0_1_8 + x_0_1_9
                                 + x_0_1_10 + x_0_1_11 + x_0_1_12 + x_0_1_13
                                 - z_0_1  = 0
 saidaDoCliente_2_peloVehicle_0#29: x_0_2_1 + x_0_2_3 + x_0_2_4 + x_0_2_5
                                 + x_0_2_6 + x_0_2_7 + x_0_2_8 + x_0_2_9
                                 + x_0_2_10 + x_0_2_11 + x_0_2_12 + x_0_2_13
                                 - z_0_2  = 0
 saidaDoCliente_3_peloVehicle_0#30: x_0_3_1 + x_0_3_2 + x_0_3_4 + x_0_3_5
                                 + x_0_3_6 + x_0_3_7 + x_0_3_8 + x_0_3_9
                                 + x_0_3_10 + x_0_3_11 + x_0_3_12 + x_0_3_13
                                 - z_0_3  = 0
 saidaDoCliente_4_peloVehicle_0#31: x_0_4_1 + x_0_4_2 + x_0_4_3 + x_0_4_5
                                 + x_0_4_6 + x_0_4_7 + x_0_4_8 + x_0_4_9
                                 + x_0_4_10 + x_0_4_11 + x_0_4_12 + x_0_4_13
                                 - z_0_4  = 0
 saidaDoCliente_5_peloVehicle_0#32: x_0_5_1 + x_0_5_2 + x_0_5_3 + x_0_5_4
                                 + x_0_5_6 + x_0_5_7 + x_0_5_8 + x_0_5_9
                                 + x_0_5_10 + x_0_5_11 + x_0_5_12 + x_0_5_13
                                 - z_0_5  = 0
 saidaDoCliente_6_peloVehicle_0#33: x_0_6_1 + x_0_6_2 + x_0_6_3 + x_0_6_4
                                 + x_0_6_5 + x_0_6_7 + x_0_6_8 + x_0_6_9
                                 + x_0_6_10 + x_0_6_11 + x_0_6_12 + x_0_6_13
                                 - z_0_6  = 0
 saidaDoCliente_7_peloVehicle_0#34: x_0_7_1 + x_0_7_2 + x_0_7_3 + x_0_7_4
                                 + x_0_7_5 + x_0_7_6 + x_0_7_8 + x_0_7_9
                                 + x_0_7_10 + x_0_7_11 + x_0_7_12 + x_0_7_13
                                 - z_0_7  = 0
 saidaDoCliente_8_peloVehicle_0#35: x_0_8_1 + x_0_8_2 + x_0_8_3 + x_0_8_4
                                 + x_0_8_5 + x_0_8_6 + x_0_8_7 + x_0_8_9
                                 + x_0_8_10 + x_0_8_11 + x_0_8_12 + x_0_8_13
                                 - z_0_8  = 0
 saidaDoCliente_9_peloVehicle_0#36: x_0_9_1 + x_0_9_2 + x_0_9_3 + x_0_9_4
                                 + x_0_9_5 + x_0_9_6 + x_0_9_7 + x_0_9_8
                                 + x_0_9_10 + x_0_9_11 + x_0_9_12 + x_0_9_13
                                 - z_0_9  = 0
 saidaDoCliente_10_peloVehicle_0#37: x_0_10_1 + x_0_10_2 + x_0_10_3 + x_0_10_4
                                 + x_0_10_5 + x_0_10_6 + x_0_10_7 + x_0_10_8
                                 + x_0_10_9 + x_0_10_11 + x_0_10_12 + x_0_10_13
                                 - z_0_10  = 0
 saidaDoCliente_11_peloVehicle_0#38: x_0_11_1 + x_0_11_2 + x_0_11_3 + x_0_11_4
                                 + x_0_11_5 + x_0_11_6 + x_0_11_7 + x_0_11_8
                                 + x_0_11_9 + x_0_11_10 + x_0_11_12 + x_0_11_13
                                 - z_0_11  = 0
 saidaDoCliente_12_peloVehicle_0#39: x_0_12_1 + x_0_12_2 + x_0_12_3 + x_0_12_4
                                 + x_0_12_5 + x_0_12_6 + x_0_12_7 + x_0_12_8
                                 + x_0_12_9 + x_0_12_10 + x_0_12_11 + x_0_12_13
                                 - z_0_12  = 0
 saidaDoCliente_13_peloVehicle_0#40: x_0_13_1 + x_0_13_2 + x_0_13_3 + x_0_13_4
                                 + x_0_13_5 + x_0_13_6 + x_0_13_7 + x_0_13_8
                                 + x_0_13_9 + x_0_13_10 + x_0_13_11 + x_0_13_12
                                 - z_0_13  = 0
 veiculo_0_utilizado#41:         x_0_0_0 + x_0_0_1 + x_0_0_2 + x_0_0_3
                                 + x_0_0_4 + x_0_0_5 + x_0_0_6 + x_0_0_7
                                 + x_0_0_8 + x_0_0_9 + x_0_0_10 + x_0_0_11
                                 + x_0_0_12 + x_0_0_13 + x_0_1_0 + x_0_1_1
                                 + x_0_1_2 + x_0_1_3 + x_0_1_4 + x_0_1_5
                                 + x_0_1_6 + x_0_1_7 + x_0_1_8 + x_0_1_9
                                 + x_0_1_10 + x_0_1_11 + x_0_1_12 + x_0_1_13
                                 + x_0_2_0 + x_0_2_1 + x_0_2_2 + x_0_2_3
                                 + x_0_2_4 + x_0_2_5 + x_0_2_6 + x_0_2_7
                                 + x_0_2_8 + x_0_2_9 + x_0_2_10 + x_0_2_11
                                 + x_0_2_12 + x_0_2_13 + x_0_3_0 + x_0_3_1
                                 + x_0_3_2 + x_0_3_3 + x_0_3_4 + x_0_3_5
                                 + x_0_3_6 + x_0_3_7 + x_0_3_8 + x_0_3_9
                                 + x_0_3_10 + x_0_3_11 + x_0_3_12 + x_0_3_13
                                 + x_0_4_0 + x_0_4_1 + x_0_4_2 + x_0_4_3
                                 + x_0_4_4 + x_0_4_5 + x_0_4_6 + x_0_4_7
                                 + x_0_4_8 + x_0_4_9 + x_0_4_10 + x_0_4_11
                                 + x_0_4_12 + x_0_4_13 + x_0_5_0 + x_0_5_1
                                 + x_0_5_2 + x_0_5_3 + x_0_5_4 + x_0_5_5
                                 + x_0_5_6 + x_0_5_7 + x_0_5_8 + x_0_5_9
                                 + x_0_5_10 + x_0_5_11 + x_0_5_12 + x_0_5_13
                                 + x_0_6_0 + x_0_6_1 + x_0_6_2 + x_0_6_3
                                 + x_0_6_4 + x_0_6_5 + x_0_6_6 + x_0_6_7
                                 + x_0_6_8 + x_0_6_9 + x_0_6_10 + x_0_6_11
                                 + x_0_6_12 + x_0_6_13 + x_0_7_0 + x_0_7_1
                                 + x_0_7_2 + x_0_7_3 + x_0_7_4 + x_0_7_5
                                 + x_0_7_6 + x_0_7_7 + x_0_7_8 + x_0_7_9
                                 + x_0_7_10 + x_0_7_11 + x_0_7_12 + x_0_7_13
                                 + x_0_8_0 + x_0_8_1 + x_0_8_2 + x_0_8_3
                                 + x_0_8_4 + x_0_8_5 + x_0_8_6 + x_0_8_7
                                 + x_0_8_8 + x_0_8_9 + x_0_8_10 + x_0_8_11
                                 + x_0_8_12 + x_0_8_13 + x_0_9_0 + x_0_9_1
                                 + x_0_9_2 + x_0_9_3 + x_0_9_4 + x_0_9_5
                                 + x_0_9_6 + x_0_9_7 + x_0_9_8 + x_0_9_9
                                 + x_0_9_10 + x_0_9_11 + x_0_9_12 + x_0_9_13
                                 + x_0_10_0 + x_0_10_1 + x_0_10_2 + x_0_10_3
                                 + x_0_10_4 + x_0_10_5 + x_0_10_6 + x_0_10_7
                                 + x_0_10_8 + x_0_10_9 + x_0_10_10 + x_0_10_11
                                 + x_0_10_12 + x_0_10_13 + x_0_11_0 + x_0_11_1
                                 + x_0_11_2 + x_0_11_3 + x_0_11_4 + x_0_11_5
                                 + x_0_11_6 + x_0_11_7 + x_0_11_8 + x_0_11_9
                                 + x_0_11_10 + x_0_11_11 + x_0_11_12
                                 + x_0_11_13 + x_0_12_0 + x_0_12_1 + x_0_12_2
                                 + x_0_12_3 + x_0_12_4 + x_0_12_5 + x_0_12_6
                                 + x_0_12_7 + x_0_12_8 + x_0_12_9 + x_0_12_10
                                 + x_0_12_11 + x_0_12_12 + x_0_12_13 + x_0_13_0
                                 + x_0_13_1 + x_0_13_2 + x_0_13_3 + x_0_13_4
                                 + x_0_13_5 + x_0_13_6 + x_0_13_7 + x_0_13_8
                                 + x_0_13_9 + x_0_13_10 + x_0_13_11 + x_0_13_12
                                 + x_0_13_13 <= 14
 saida_Deposito#42:              x_0_0_1 + x_0_0_2 + x_0_0_3 + x_0_0_4
                                 + x_0_0_5 + x_0_0_6 + x_0_0_7 + x_0_0_8
                                 + x_0_0_9 + x_0_0_10 + x_0_0_11 + x_0_0_12
                                 + x_0_0_13  = 1
 saida_Deposito2#43:             z_0_0  = 1
 retorno_Deposito#44:            x_0_1_0 + x_0_2_0 + x_0_3_0 + x_0_4_0
                                 + x_0_5_0 + x_0_6_0 + x_0_7_0 + x_0_8_0
                                 + x_0_9_0 + x_0_10_0 + x_0_11_0 + x_0_12_0
                                 + x_0_13_0  = 0
 retorno_Deposito2#45:            = 0
 SumDrivers#46:                  >= 0
 GETOUT_0_0_1#47:                - 200 x_0_0_1 - u_0_1 + u_0_0 >= -200
 GETOUT_0_0_2#48:                - 200 x_0_0_2 + u_0_0 - u_0_2 >= -200
 GETOUT_0_0_3#49:                - 200 x_0_0_3 + u_0_0 - u_0_3 >= -200
 GETOUT_0_0_4#50:                - 200 x_0_0_4 + u_0_0 - u_0_4 >= -200
 GETOUT_0_0_5#51:                - 200 x_0_0_5 + u_0_0 - u_0_5 >= -200
 GETOUT_0_0_6#52:                - 200 x_0_0_6 + u_0_0 - u_0_6 >= -200
 GETOUT_0_0_7#53:                - 200 x_0_0_7 + u_0_0 - u_0_7 >= -200
 GETOUT_0_0_8#54:                - 200 x_0_0_8 + u_0_0 - u_0_8 >= -200
 GETOUT_0_0_9#55:                - 200 x_0_0_9 + u_0_0 - u_0_9 >= -200
 GETOUT_0_0_10#56:               - 200 x_0_0_10 + u_0_0 - u_0_10 >= -200
 GETOUT_0_0_11#57:               - 200 x_0_0_11 + u_0_0 - u_0_11 >= -200
 GETOUT_0_0_12#58:               - 200 x_0_0_12 + u_0_0 - u_0_12 >= -200
 GETOUT_0_0_13#59:               - 200 x_0_0_13 + u_0_0 - u_0_13 >= -200
 GETOUT_0_1_0#60:                - 200 x_0_1_0 + u_0_1 - u_0_0 >= -190
 GETOUT_0_1_2#61:                - 200 x_0_1_2 + u_0_1 - u_0_2 >= -190
 GETOUT_0_1_3#62:                - 200 x_0_1_3 + u_0_1 - u_0_3 >= -190
 GETOUT_0_1_4#63:                - 200 x_0_1_4 + u_0_1 - u_0_4 >= -190
 GETOUT_0_1_5#64:                - 200 x_0_1_5 + u_0_1 - u_0_5 >= -190
 GETOUT_0_1_6#65:                - 200 x_0_1_6 + u_0_1 - u_0_6 >= -190
 GETOUT_0_1_7#66:                - 200 x_0_1_7 + u_0_1 - u_0_7 >= -190
 GETOUT_0_1_8#67:                - 200 x_0_1_8 + u_0_1 - u_0_8 >= -190
 GETOUT_0_1_9#68:                - 200 x_0_1_9 + u_0_1 - u_0_9 >= -190
 GETOUT_0_1_10#69:               - 200 x_0_1_10 + u_0_1 - u_0_10 >= -190
 GETOUT_0_1_11#70:               - 200 x_0_1_11 + u_0_1 - u_0_11 >= -190
 GETOUT_0_1_12#71:               - 200 x_0_1_12 + u_0_1 - u_0_12 >= -190
 GETOUT_0_1_13#72:               - 200 x_0_1_13 + u_0_1 - u_0_13 >= -190
 GETOUT_0_2_0#73:                - 200 x_0_2_0 - u_0_0 + u_0_2 >= -190
 GETOUT_0_2_1#74:                - 200 x_0_2_1 - u_0_1 + u_0_2 >= -190
 GETOUT_0_2_3#75:                - 200 x_0_2_3 + u_0_2 - u_0_3 >= -190
 GETOUT_0_2_4#76:                - 200 x_0_2_4 + u_0_2 - u_0_4 >= -190
 GETOUT_0_2_5#77:                - 200 x_0_2_5 + u_0_2 - u_0_5 >= -190
 GETOUT_0_2_6#78:                - 200 x_0_2_6 + u_0_2 - u_0_6 >= -190
 GETOUT_0_2_7#79:                - 200 x_0_2_7 + u_0_2 - u_0_7 >= -190
 GETOUT_0_2_8#80:                - 200 x_0_2_8 + u_0_2 - u_0_8 >= -190
 GETOUT_0_2_9#81:                - 200 x_0_2_9 + u_0_2 - u_0_9 >= -190
 GETOUT_0_2_10#82:               - 200 x_0_2_10 + u_0_2 - u_0_10 >= -190
 GETOUT_0_2_11#83:               - 200 x_0_2_11 + u_0_2 - u_0_11 >= -190
 GETOUT_0_2_12#84:               - 200 x_0_2_12 + u_0_2 - u_0_12 >= -190
 GETOUT_0_2_13#85:               - 200 x_0_2_13 + u_0_2 - u_0_13 >= -190
 GETOUT_0_3_0#86:                - 200 x_0_3_0 - u_0_0 + u_0_3 >= -190
 GETOUT_0_3_1#87:                - 200 x_0_3_1 - u_0_1 + u_0_3 >= -190
 GETOUT_0_3_2#88:                - 200 x_0_3_2 - u_0_2 + u_0_3 >= -190
 GETOUT_0_3_4#89:                - 200 x_0_3_4 + u_0_3 - u_0_4 >= -190
 GETOUT_0_3_5#90:                - 200 x_0_3_5 + u_0_3 - u_0_5 >= -190
 GETOUT_0_3_6#91:                - 200 x_0_3_6 + u_0_3 - u_0_6 >= -190
 GETOUT_0_3_7#92:                - 200 x_0_3_7 + u_0_3 - u_0_7 >= -190
 GETOUT_0_3_8#93:                - 200 x_0_3_8 + u_0_3 - u_0_8 >= -190
 GETOUT_0_3_9#94:                - 200 x_0_3_9 + u_0_3 - u_0_9 >= -190
 GETOUT_0_3_10#95:               - 200 x_0_3_10 + u_0_3 - u_0_10 >= -190
 GETOUT_0_3_11#96:               - 200 x_0_3_11 + u_0_3 - u_0_11 >= -190
 GETOUT_0_3_12#97:               - 200 x_0_3_12 + u_0_3 - u_0_12 >= -190
 GETOUT_0_3_13#98:               - 200 x_0_3_13 + u_0_3 - u_0_13 >= -190
 GETOUT_0_4_0#99:                - 200 x_0_4_0 - u_0_0 + u_0_4 >= -170
 GETOUT_0_4_1#100:               - 200 x_0_4_1 - u_0_1 + u_0_4 >= -170
 GETOUT_0_4_2#101:               - 200 x_0_4_2 - u_0_2 + u_0_4 >= -170
 GETOUT_0_4_3#102:               - 200 x_0_4_3 - u_0_3 + u_0_4 >= -170
 GETOUT_0_4_5#103:               - 200 x_0_4_5 + u_0_4 - u_0_5 >= -170
 GETOUT_0_4_6#104:               - 200 x_0_4_6 + u_0_4 - u_0_6 >= -170
 GETOUT_0_4_7#105:               - 200 x_0_4_7 + u_0_4 - u_0_7 >= -170
 GETOUT_0_4_8#106:               - 200 x_0_4_8 + u_0_4 - u_0_8 >= -170
 GETOUT_0_4_9#107:               - 200 x_0_4_9 + u_0_4 - u_0_9 >= -170
 GETOUT_0_4_10#108:              - 200 x_0_4_10 + u_0_4 - u_0_10 >= -170
 GETOUT_0_4_11#109:              - 200 x_0_4_11 + u_0_4 - u_0_11 >= -170
 GETOUT_0_4_12#110:              - 200 x_0_4_12 + u_0_4 - u_0_12 >= -170
 GETOUT_0_4_13#111:              - 200 x_0_4_13 + u_0_4 - u_0_13 >= -170
 GETOUT_0_5_0#112:               - 200 x_0_5_0 - u_0_0 + u_0_5 >= -190
 GETOUT_0_5_1#113:               - 200 x_0_5_1 - u_0_1 + u_0_5 >= -190
 GETOUT_0_5_2#114:               - 200 x_0_5_2 - u_0_2 + u_0_5 >= -190
 GETOUT_0_5_3#115:               - 200 x_0_5_3 - u_0_3 + u_0_5 >= -190
 GETOUT_0_5_4#116:               - 200 x_0_5_4 - u_0_4 + u_0_5 >= -190
 GETOUT_0_5_6#117:               - 200 x_0_5_6 + u_0_5 - u_0_6 >= -190
 GETOUT_0_5_7#118:               - 200 x_0_5_7 + u_0_5 - u_0_7 >= -190
 GETOUT_0_5_8#119:               - 200 x_0_5_8 + u_0_5 - u_0_8 >= -190
 GETOUT_0_5_9#120:               - 200 x_0_5_9 + u_0_5 - u_0_9 >= -190
 GETOUT_0_5_10#121:              - 200 x_0_5_10 + u_0_5 - u_0_10 >= -190
 GETOUT_0_5_11#122:              - 200 x_0_5_11 + u_0_5 - u_0_11 >= -190
 GETOUT_0_5_12#123:              - 200 x_0_5_12 + u_0_5 - u_0_12 >= -190
 GETOUT_0_5_13#124:              - 200 x_0_5_13 + u_0_5 - u_0_13 >= -190
 GETOUT_0_6_0#125:               - 200 x_0_6_0 - u_0_0 + u_0_6 >= -190
 GETOUT_0_6_1#126:               - 200 x_0_6_1 - u_0_1 + u_0_6 >= -190
 GETOUT_0_6_2#127:               - 200 x_0_6_2 - u_0_2 + u_0_6 >= -190
 GETOUT_0_6_3#128:               - 200 x_0_6_3 - u_0_3 + u_0_6 >= -190
 GETOUT_0_6_4#129:               - 200 x_0_6_4 - u_0_4 + u_0_6 >= -190
 GETOUT_0_6_5#130:               - 200 x_0_6_5 - u_0_5 + u_0_6 >= -190
 GETOUT_0_6_7#131:               - 200 x_0_6_7 + u_0_6 - u_0_7 >= -190
 GETOUT_0_6_8#132:               - 200 x_0_6_8 + u_0_6 - u_0_8 >= -190
 GETOUT_0_6_9#133:               - 200 x_0_6_9 + u_0_6 - u_0_9 >= -190
 GETOUT_0_6_10#134:              - 200 x_0_6_10 + u_0_6 - u_0_10 >= -190
 GETOUT_0_6_11#135:              - 200 x_0_6_11 + u_0_6 - u_0_11 >= -190
 GETOUT_0_6_12#136:              - 200 x_0_6_12 + u_0_6 - u_0_12 >= -190
 GETOUT_0_6_13#137:              - 200 x_0_6_13 + u_0_6 - u_0_13 >= -190
 GETOUT_0_7_0#138:               - 200 x_0_7_0 - u_0_0 + u_0_7 >= -190
 GETOUT_0_7_1#139:               - 200 x_0_7_1 - u_0_1 + u_0_7 >= -190
 GETOUT_0_7_2#140:               - 200 x_0_7_2 - u_0_2 + u_0_7 >= -190
 GETOUT_0_7_3#141:               - 200 x_0_7_3 - u_0_3 + u_0_7 >= -190
 GETOUT_0_7_4#142:               - 200 x_0_7_4 - u_0_4 + u_0_7 >= -190
 GETOUT_0_7_5#143:               - 200 x_0_7_5 - u_0_5 + u_0_7 >= -190
 GETOUT_0_7_6#144:               - 200 x_0_7_6 - u_0_6 + u_0_7 >= -190
 GETOUT_0_7_8#145:               - 200 x_0_7_8 + u_0_7 - u_0_8 >= -190
 GETOUT_0_7_9#146:               - 200 x_0_7_9 + u_0_7 - u_0_9 >= -190
 GETOUT_0_7_10#147:              - 200 x_0_7_10 + u_0_7 - u_0_10 >= -190
 GETOUT_0_7_11#148:              - 200 x_0_7_11 + u_0_7 - u_0_11 >= -190
 GETOUT_0_7_12#149:              - 200 x_0_7_12 + u_0_7 - u_0_12 >= -190
 GETOUT_0_7_13#150:              - 200 x_0_7_13 + u_0_7 - u_0_13 >= -190
 GETOUT_0_8_0#151:               - 200 x_0_8_0 - u_0_0 + u_0_8 >= -190
 GETOUT_0_8_1#152:               - 200 x_0_8_1 - u_0_1 + u_0_8 >= -190
 GETOUT_0_8_2#153:               - 200 x_0_8_2 - u_0_2 + u_0_8 >= -190
 GETOUT_0_8_3#154:               - 200 x_0_8_3 - u_0_3 + u_0_8 >= -190
 GETOUT_0_8_4#155:               - 200 x_0_8_4 - u_0_4 + u_0_8 >= -190
 GETOUT_0_8_5#156:               - 200 x_0_8_5 - u_0_5 + u_0_8 >= -190
 GETOUT_0_8_6#157:               - 200 x_0_8_6 - u_0_6 + u_0_8 >= -190
 GETOUT_0_8_7#158:               - 200 x_0_8_7 - u_0_7 + u_0_8 >= -190
 GETOUT_0_8_9#159:               - 200 x_0_8_9 + u_0_8 - u_0_9 >= -190
 GETOUT_0_8_10#160:              - 200 x_0_8_10 + u_0_8 - u_0_10 >= -190
 GETOUT_0_8_11#161:              - 200 x_0_8_11 + u_0_8 - u_0_11 >= -190
 GETOUT_0_8_12#162:              - 200 x_0_8_12 + u_0_8 - u_0_12 >= -190
 GETOUT_0_8_13#163:              - 200 x_0_8_13 + u_0_8 - u_0_13 >= -190
 GETOUT_0_9_0#164:               - 200 x_0_9_0 - u_0_0 + u_0_9 >= -190
 GETOUT_0_9_1#165:               - 200 x_0_9_1 - u_0_1 + u_0_9 >= -190
 GETOUT_0_9_2#166:               - 200 x_0_9_2 - u_0_2 + u_0_9 >= -190
 GETOUT_0_9_3#167:               - 200 x_0_9_3 - u_0_3 + u_0_9 >= -190
 GETOUT_0_9_4#168:               - 200 x_0_9_4 - u_0_4 + u_0_9 >= -190
 GETOUT_0_9_5#169:               - 200 x_0_9_5 - u_0_5 + u_0_9 >= -190
 GETOUT_0_9_6#170:               - 200 x_0_9_6 - u_0_6 + u_0_9 >= -190
 GETOUT_0_9_7#171:               - 200 x_0_9_7 - u_0_7 + u_0_9 >= -190
 GETOUT_0_9_8#172:               - 200 x_0_9_8 - u_0_8 + u_0_9 >= -190
 GETOUT_0_9_10#173:              - 200 x_0_9_10 + u_0_9 - u_0_10 >= -190
 GETOUT_0_9_11#174:              - 200 x_0_9_11 + u_0_9 - u_0_11 >= -190
 GETOUT_0_9_12#175:              - 200 x_0_9_12 + u_0_9 - u_0_12 >= -190
 GETOUT_0_9_13#176:              - 200 x_0_9_13 + u_0_9 - u_0_13 >= -190
 GETOUT_0_10_0#177:              - 200 x_0_10_0 - u_0_0 + u_0_10 >= -180
 GETOUT_0_10_1#178:              - 200 x_0_10_1 - u_0_1 + u_0_10 >= -180
 GETOUT_0_10_2#179:              - 200 x_0_10_2 - u_0_2 + u_0_10 >= -180
 GETOUT_0_10_3#180:              - 200 x_0_10_3 - u_0_3 + u_0_10 >= -180
 GETOUT_0_10_4#181:              - 200 x_0_10_4 - u_0_4 + u_0_10 >= -180
 GETOUT_0_10_5#182:              - 200 x_0_10_5 - u_0_5 + u_0_10 >= -180
 GETOUT_0_10_6#183:              - 200 x_0_10_6 - u_0_6 + u_0_10 >= -180
 GETOUT_0_10_7#184:              - 200 x_0_10_7 - u_0_7 + u_0_10 >= -180
 GETOUT_0_10_8#185:              - 200 x_0_10_8 - u_0_8 + u_0_10 >= -180
 GETOUT_0_10_9#186:              - 200 x_0_10_9 - u_0_9 + u_0_10 >= -180
 GETOUT_0_10_11#187:             - 200 x_0_10_11 + u_0_10 - u_0_11 >= -180
 GETOUT_0_10_12#188:             - 200 x_0_10_12 + u_0_10 - u_0_12 >= -180
 GETOUT_0_10_13#189:             - 200 x_0_10_13 + u_0_10 - u_0_13 >= -180
 GETOUT_0_11_0#190:              - 200 x_0_11_0 - u_0_0 + u_0_11 >= -190
 GETOUT_0_11_1#191:              - 200 x_0_11_1 - u_0_1 + u_0_11 >= -190
 GETOUT_0_11_2#192:              - 200 x_0_11_2 - u_0_2 + u_0_11 >= -190
 GETOUT_0_11_3#193:              - 200 x_0_11_3 - u_0_3 + u_0_11 >= -190
 GETOUT_0_11_4#194:              - 200 x_0_11_4 - u_0_4 + u_0_11 >= -190
 GETOUT_0_11_5#195:              - 200 x_0_11_5 - u_0_5 + u_0_11 >= -190
 GETOUT_0_11_6#196:              - 200 x_0_11_6 - u_0_6 + u_0_11 >= -190
 GETOUT_0_11_7#197:              - 200 x_0_11_7 - u_0_7 + u_0_11 >= -190
 GETOUT_0_11_8#198:              - 200 x_0_11_8 - u_0_8 + u_0_11 >= -190
 GETOUT_0_11_9#199:              - 200 x_0_11_9 - u_0_9 + u_0_11 >= -190
 GETOUT_0_11_10#200:             - 200 x_0_11_10 - u_0_10 + u_0_11 >= -190
 GETOUT_0_11_12#201:             - 200 x_0_11_12 + u_0_11 - u_0_12 >= -190
 GETOUT_0_11_13#202:             - 200 x_0_11_13 + u_0_11 - u_0_13 >= -190
 GETOUT_0_12_0#203:              - 200 x_0_12_0 - u_0_0 + u_0_12 >= -190
 GETOUT_0_12_1#204:              - 200 x_0_12_1 - u_0_1 + u_0_12 >= -190
 GETOUT_0_12_2#205:              - 200 x_0_12_2 - u_0_2 + u_0_12 >= -190
 GETOUT_0_12_3#206:              - 200 x_0_12_3 - u_0_3 + u_0_12 >= -190
 GETOUT_0_12_4#207:              - 200 x_0_12_4 - u_0_4 + u_0_12 >= -190
 GETOUT_0_12_5#208:              - 200 x_0_12_5 - u_0_5 + u_0_12 >= -190
 GETOUT_0_12_6#209:              - 200 x_0_12_6 - u_0_6 + u_0_12 >= -190
 GETOUT_0_12_7#210:              - 200 x_0_12_7 - u_0_7 + u_0_12 >= -190
 GETOUT_0_12_8#211:              - 200 x_0_12_8 - u_0_8 + u_0_12 >= -190
 GETOUT_0_12_9#212:              - 200 x_0_12_9 - u_0_9 + u_0_12 >= -190
 GETOUT_0_12_10#213:             - 200 x_0_12_10 - u_0_10 + u_0_12 >= -190
 GETOUT_0_12_11#214:             - 200 x_0_12_11 - u_0_11 + u_0_12 >= -190
 GETOUT_0_12_13#215:             - 200 x_0_12_13 + u_0_12 - u_0_13 >= -190
 GETOUT_0_13_0#216:              - 200 x_0_13_0 - u_0_0 + u_0_13 >= -190
 GETOUT_0_13_1#217:              - 200 x_0_13_1 - u_0_1 + u_0_13 >= -190
 GETOUT_0_13_2#218:              - 200 x_0_13_2 - u_0_2 + u_0_13 >= -190
 GETOUT_0_13_3#219:              - 200 x_0_13_3 - u_0_3 + u_0_13 >= -190
 GETOUT_0_13_4#220:              - 200 x_0_13_4 - u_0_4 + u_0_13 >= -190
 GETOUT_0_13_5#221:              - 200 x_0_13_5 - u_0_5 + u_0_13 >= -190
 GETOUT_0_13_6#222:              - 200 x_0_13_6 - u_0_6 + u_0_13 >= -190
 GETOUT_0_13_7#223:              - 200 x_0_13_7 - u_0_7 + u_0_13 >= -190
 GETOUT_0_13_8#224:              - 200 x_0_13_8 - u_0_8 + u_0_13 >= -190
 GETOUT_0_13_9#225:              - 200 x_0_13_9 - u_0_9 + u_0_13 >= -190
 GETOUT_0_13_10#226:             - 200 x_0_13_10 - u_0_10 + u_0_13 >= -190
 GETOUT_0_13_11#227:             - 200 x_0_13_11 - u_0_11 + u_0_13 >= -190
 GETOUT_0_13_12#228:             - 200 x_0_13_12 - u_0_12 + u_0_13 >= -190
 fluxo_veiculo_0_da_entrega_11#229: z_0_11 + y_0_11  = 1
 fluxo_veiculo_0_da_entrega_5#230: z_0_5 + y_0_5  = 1
 fluxo_veiculo_0_da_entrega_7#231: z_0_7 + y_0_7  = 1
 fluxo_veiculo_0_da_entrega_1#232: z_0_1 + y_0_1  = 1
Bounds
      x_0_0_0 = 0
      x_0_0_1 = 0
      x_0_0_2 = 0
      x_0_0_3 = 0
      x_0_0_4 = 0
      x_0_0_5 = 0
      x_0_0_6 = 0
      x_0_0_7 = 0
      x_0_0_8 = 0
      x_0_0_9 = 0
      x_0_0_10 = 0
      x_0_0_11 = 1
      x_0_0_12 = 0
      x_0_0_13 = 0
 0 <= x_0_1_0 <= 1
      x_0_1_1 = 0
 0 <= x_0_1_2 <= 1
 0 <= x_0_1_3 <= 1
 0 <= x_0_1_4 <= 1
      x_0_1_5 = 0
 0 <= x_0_1_6 <= 1
      x_0_1_7 = 0
 0 <= x_0_1_8 <= 1
 0 <= x_0_1_9 <= 1
 0 <= x_0_1_10 <= 1
      x_0_1_11 = 0
 0 <= x_0_1_12 <= 1
 0 <= x_0_1_13 <= 1
 0 <= x_0_2_0 <= 1
      x_0_2_1 = 0
      x_0_2_2 = 0
 0 <= x_0_2_3 <= 1
 0 <= x_0_2_4 <= 1
      x_0_2_5 = 0
 0 <= x_0_2_6 <= 1
      x_0_2_7 = 0
 0 <= x_0_2_8 <= 1
 0 <= x_0_2_9 <= 1
 0 <= x_0_2_10 <= 1
      x_0_2_11 = 0
 0 <= x_0_2_12 <= 1
 0 <= x_0_2_13 <= 1
 0 <= x_0_3_0 <= 1
      x_0_3_1 = 0
 0 <= x_0_3_2 <= 1
      x_0_3_3 = 0
 0 <= x_0_3_4 <= 1
      x_0_3_5 = 0
 0 <= x_0_3_6 <= 1
      x_0_3_7 = 0
 0 <= x_0_3_8 <= 1
 0 <= x_0_3_9 <= 1
 0 <= x_0_3_10 <= 1
      x_0_3_11 = 0
 0 <= x_0_3_12 <= 1
 0 <= x_0_3_13 <= 1
 0 <= x_0_4_0 <= 1
      x_0_4_1 = 0
 0 <= x_0_4_2 <= 1
 0 <= x_0_4_3 <= 1
      x_0_4_4 = 0
      x_0_4_5 = 0
 0 <= x_0_4_6 <= 1
      x_0_4_7 = 0
 0 <= x_0_4_8 <= 1
 0 <= x_0_4_9 <= 1
 0 <= x_0_4_10 <= 1
      x_0_4_11 = 0
 0 <= x_0_4_12 <= 1
 0 <= x_0_4_13 <= 1
      x_0_5_0 = 0
      x_0_5_1 = 0
      x_0_5_2 = 0
      x_0_5_3 = 0
      x_0_5_4 = 0
      x_0_5_5 = 0
      x_0_5_6 = 0
      x_0_5_7 = 1
      x_0_5_8 = 0
      x_0_5_9 = 0
      x_0_5_10 = 0
      x_0_5_11 = 0
      x_0_5_12 = 0
      x_0_5_13 = 0
 0 <= x_0_6_0 <= 1
      x_0_6_1 = 0
 0 <= x_0_6_2 <= 1
 0 <= x_0_6_3 <= 1
 0 <= x_0_6_4 <= 1
      x_0_6_5 = 0
      x_0_6_6 = 0
      x_0_6_7 = 0
 0 <= x_0_6_8 <= 1
 0 <= x_0_6_9 <= 1
 0 <= x_0_6_10 <= 1
      x_0_6_11 = 0
 0 <= x_0_6_12 <= 1
 0 <= x_0_6_13 <= 1
      x_0_7_0 = 0
      x_0_7_1 = 1
      x_0_7_2 = 0
      x_0_7_3 = 0
      x_0_7_4 = 0
      x_0_7_5 = 0
      x_0_7_6 = 0
      x_0_7_7 = 0
      x_0_7_8 = 0
      x_0_7_9 = 0
      x_0_7_10 = 0
      x_0_7_11 = 0
      x_0_7_12 = 0
      x_0_7_13 = 0
 0 <= x_0_8_0 <= 1
      x_0_8_1 = 0
 0 <= x_0_8_2 <= 1
 0 <= x_0_8_3 <= 1
 0 <= x_0_8_4 <= 1
      x_0_8_5 = 0
 0 <= x_0_8_6 <= 1
      x_0_8_7 = 0
      x_0_8_8 = 0
 0 <= x_0_8_9 <= 1
 0 <= x_0_8_10 <= 1
      x_0_8_11 = 0
 0 <= x_0_8_12 <= 1
 0 <= x_0_8_13 <= 1
 0 <= x_0_9_0 <= 1
      x_0_9_1 = 0
 0 <= x_0_9_2 <= 1
 0 <= x_0_9_3 <= 1
 0 <= x_0_9_4 <= 1
      x_0_9_5 = 0
 0 <= x_0_9_6 <= 1
      x_0_9_7 = 0
 0 <= x_0_9_8 <= 1
      x_0_9_9 = 0
 0 <= x_0_9_10 <= 1
      x_0_9_11 = 0
 0 <= x_0_9_12 <= 1
 0 <= x_0_9_13 <= 1
 0 <= x_0_10_0 <= 1
      x_0_10_1 = 0
 0 <= x_0_10_2 <= 1
 0 <= x_0_10_3 <= 1
 0 <= x_0_10_4 <= 1
      x_0_10_5 = 0
 0 <= x_0_10_6 <= 1
      x_0_10_7 = 0
 0 <= x_0_10_8 <= 1
 0 <= x_0_10_9 <= 1
      x_0_10_10 = 0
      x_0_10_11 = 0
 0 <= x_0_10_12 <= 1
 0 <= x_0_10_13 <= 1
      x_0_11_0 = 0
      x_0_11_1 = 0
      x_0_11_2 = 0
      x_0_11_3 = 0
      x_0_11_4 = 0
      x_0_11_5 = 1
      x_0_11_6 = 0
      x_0_11_7 = 0
      x_0_11_8 = 0
      x_0_11_9 = 0
      x_0_11_10 = 0
      x_0_11_11 = 0
      x_0_11_12 = 0
      x_0_11_13 = 0
 0 <= x_0_12_0 <= 1
      x_0_12_1 = 0
 0 <= x_0_12_2 <= 1
 0 <= x_0_12_3 <= 1
 0 <= x_0_12_4 <= 1
      x_0_12_5 = 0
 0 <= x_0_12_6 <= 1
      x_0_12_7 = 0
 0 <= x_0_12_8 <= 1
 0 <= x_0_12_9 <= 1
 0 <= x_0_12_10 <= 1
      x_0_12_11 = 0
      x_0_12_12 = 0
 0 <= x_0_12_13 <= 1
 0 <= x_0_13_0 <= 1
      x_0_13_1 = 0
 0 <= x_0_13_2 <= 1
 0 <= x_0_13_3 <= 1
 0 <= x_0_13_4 <= 1
      x_0_13_5 = 0
 0 <= x_0_13_6 <= 1
      x_0_13_7 = 0
 0 <= x_0_13_8 <= 1
 0 <= x_0_13_9 <= 1
 0 <= x_0_13_10 <= 1
      x_0_13_11 = 0
 0 <= x_0_13_12 <= 1
      x_0_13_13 = 0
 0 <= z_0_1 <= 1
      y_0_1 = 0
 0 <= z_0_2 <= 1
 0 <= y_0_2 <= 1
 0 <= z_0_3 <= 1
 0 <= y_0_3 <= 1
 0 <= z_0_4 <= 1
 0 <= y_0_4 <= 1
      z_0_5 = 1
      y_0_5 = 0
 0 <= z_0_6 <= 1
 0 <= y_0_6 <= 1
      z_0_7 = 1
      y_0_7 = 0
 0 <= z_0_8 <= 1
 0 <= y_0_8 <= 1
 0 <= z_0_9 <= 1
 0 <= y_0_9 <= 1
 0 <= z_0_10 <= 1
 0 <= y_0_10 <= 1
      z_0_11 = 1
      y_0_11 = 0
 0 <= z_0_12 <= 1
 0 <= y_0_12 <= 1
 0 <= z_0_13 <= 1
 0 <= y_0_13 <= 1
      z_0_0 = 1
 0 <= u_0_1 <= 200
 0 <= u_0_0 <= 200
 0 <= u_0_2 <= 200
 0 <= u_0_3 <= 200
 0 <= u_0_4 <= 200
 0 <= u_0_5 <= 200
 0 <= u_0_6 <= 200
 0 <= u_0_7 <= 200
 0 <= u_0_8 <= 200
 0 <= u_0_9 <= 200
 0 <= u_0_10 <= 200
 0 <= u_0_11 <= 200
 0 <= u_0_12 <= 200
 0 <= u_0_13 <= 200
Binaries
 x_0_0_0  x_0_0_1  x_0_0_2  x_0_0_3  x_0_0_4  x_0_0_5  x_0_0_6  x_0_0_7 
 x_0_0_8  x_0_0_9  x_0_0_10  x_0_0_11  x_0_0_12  x_0_0_13  x_0_1_0  x_0_1_1 
 x_0_1_2  x_0_1_3  x_0_1_4  x_0_1_5  x_0_1_6  x_0_1_7  x_0_1_8  x_0_1_9 
 x_0_1_10  x_0_1_11  x_0_1_12  x_0_1_13  x_0_5_0  x_0_5_1  x_0_5_2  x_0_5_3 
 x_0_5_4  x_0_5_5  x_0_5_6  x_0_5_7  x_0_5_8  x_0_5_9  x_0_5_10  x_0_5_11 
 x_0_5_12  x_0_5_13  x_0_7_0  x_0_7_1  x_0_7_2  x_0_7_3  x_0_7_4  x_0_7_5 
 x_0_7_6  x_0_7_7  x_0_7_8  x_0_7_9  x_0_7_10  x_0_7_11  x_0_7_12  x_0_7_13 
 x_0_11_0  x_0_11_1  x_0_11_2  x_0_11_3  x_0_11_4  x_0_11_5  x_0_11_6 
 x_0_11_7  x_0_11_8  x_0_11_9  x_0_11_10  x_0_11_11  x_0_11_12  x_0_11_13 
 z_0_1  y_0_1  z_0_2  y_0_2  z_0_3  y_0_3  z_0_4  y_0_4  z_0_5  y_0_5  z_0_6 
 y_0_6  z_0_7  y_0_7  z_0_8  y_0_8  z_0_9  y_0_9  z_0_10  y_0_10  z_0_11 
 y_0_11  z_0_12  y_0_12  z_0_13  y_0_13  z_0_0 
End
